p tw 416 1344
1 33
2 34
3 35
4 36
5 37
6 38
7 39
8 40
9 41
10 42
11 43
12 44
13 45
14 46
15 47
16 48
17 49
18 50
19 51
20 52
21 53
22 54
23 55
24 56
25 57
26 58
27 59
28 60
29 61
30 62
31 63
32 64
33 67
33 108
33 109
33 110
34 82
34 93
34 94
34 95
35 66
35 104
35 106
35 107
36 127
36 135
36 138
36 141
37 70
37 112
37 123
37 125
38 94
38 126
38 129
38 131
39 69
39 77
39 80
39 81
40 75
40 138
40 139
40 140
41 87
41 118
41 119
41 120
42 102
42 106
42 111
42 115
43 96
43 99
43 102
43 103
44 73
44 74
44 75
44 76
45 65
45 66
45 67
45 68
46 86
46 90
46 91
46 92
47 65
47 84
47 104
47 105
48 113
48 139
48 142
48 144
49 78
49 91
49 129
49 130
50 80
50 108
50 116
50 117
51 74
51 118
51 123
51 124
52 69
52 70
52 71
52 72
53 111
53 112
53 113
53 114
54 116
54 136
54 142
54 143
55 97
55 121
55 132
55 134
56 100
56 119
56 132
56 133
57 93
57 99
57 100
57 101
58 88
58 126
58 127
58 128
59 86
59 87
59 88
59 89
60 83
60 96
60 97
60 98
61 71
61 135
61 136
61 137
62 90
62 109
62 121
62 122
63 82
63 83
63 84
63 85
64 73
64 77
64 78
64 79
65 66
65 67
65 68
65 84
65 104
65 105
66 67
66 68
66 104
66 106
66 107
67 68
67 108
67 109
67 110
68 145
68 146
68 147
68 148
69 70
69 71
69 72
69 77
69 80
69 81
70 71
70 72
70 112
70 123
70 125
71 72
71 135
71 136
71 137
72 149
72 150
72 151
72 152
73 74
73 75
73 76
73 77
73 78
73 79
74 75
74 76
74 118
74 123
74 124
75 76
75 138
75 139
75 140
76 153
76 154
76 155
76 156
77 78
77 79
77 80
77 81
78 79
78 91
78 129
78 130
79 153
79 157
79 158
79 159
80 81
80 108
80 116
80 117
81 149
81 157
81 160
81 161
82 83
82 84
82 85
82 93
82 94
82 95
83 84
83 85
83 96
83 97
83 98
84 85
84 104
84 105
85 162
85 163
85 164
85 165
86 87
86 88
86 89
86 90
86 91
86 92
87 88
87 89
87 118
87 119
87 120
88 89
88 126
88 127
88 128
89 166
89 167
89 168
89 169
90 91
90 92
90 109
90 121
90 122
91 92
91 129
91 130
92 166
92 170
92 171
92 172
93 94
93 95
93 99
93 100
93 101
94 95
94 126
94 129
94 131
95 162
95 173
95 174
95 175
96 97
96 98
96 99
96 102
96 103
97 98
97 121
97 132
97 134
98 163
98 176
98 177
98 178
99 100
99 101
99 102
99 103
100 101
100 119
100 132
100 133
101 173
101 179
101 180
101 181
102 103
102 106
102 111
102 115
103 176
103 179
103 182
103 183
104 105
104 106
104 107
105 145
105 164
105 184
105 185
106 107
106 111
106 115
107 146
107 184
107 186
107 187
108 109
108 110
108 116
108 117
109 110
109 121
109 122
110 147
110 188
110 189
110 190
111 112
111 113
111 114
111 115
112 113
112 114
112 123
112 125
113 114
113 139
113 142
113 144
114 191
114 192
114 193
114 194
115 182
115 186
115 191
115 195
116 117
116 136
116 142
116 143
117 160
117 188
117 196
117 197
118 119
118 120
118 123
118 124
119 120
119 132
119 133
120 167
120 198
120 199
120 200
121 122
121 132
121 134
122 170
122 189
122 201
122 202
123 124
123 125
124 154
124 198
124 203
124 204
125 150
125 192
125 203
125 205
126 127
126 128
126 129
126 131
127 128
127 135
127 138
127 141
128 168
128 206
128 207
128 208
129 130
129 131
130 158
130 171
130 209
130 210
131 174
131 206
131 209
131 211
132 133
132 134
133 180
133 199
133 212
133 213
134 177
134 201
134 212
134 214
135 136
135 137
135 138
135 141
136 137
136 142
136 143
137 151
137 215
137 216
137 217
138 139
138 140
138 141
139 140
139 142
139 144
140 155
140 218
140 219
140 220
141 207
141 215
141 218
141 221
142 143
142 144
143 196
143 216
143 222
143 223
144 193
144 219
144 222
144 224
145 146
145 147
145 148
145 164
145 184
145 185
146 147
146 148
146 184
146 186
146 187
147 148
147 188
147 189
147 190
148 225
148 226
148 227
148 228
149 150
149 151
149 152
149 157
149 160
149 161
150 151
150 152
150 192
150 203
150 205
151 152
151 215
151 216
151 217
152 229
152 230
152 231
152 232
153 154
153 155
153 156
153 157
153 158
153 159
154 155
154 156
154 198
154 203
154 204
155 156
155 218
155 219
155 220
156 233
156 234
156 235
156 236
157 158
157 159
157 160
157 161
158 159
158 171
158 209
158 210
159 233
159 237
159 238
159 239
160 161
160 188
160 196
160 197
161 229
161 237
161 240
161 241
162 163
162 164
162 165
162 173
162 174
162 175
163 164
163 165
163 176
163 177
163 178
164 165
164 184
164 185
165 242
165 243
165 244
165 245
166 167
166 168
166 169
166 170
166 171
166 172
167 168
167 169
167 198
167 199
167 200
168 169
168 206
168 207
168 208
169 246
169 247
169 248
169 249
170 171
170 172
170 189
170 201
170 202
171 172
171 209
171 210
172 246
172 250
172 251
172 252
173 174
173 175
173 179
173 180
173 181
174 175
174 206
174 209
174 211
175 242
175 253
175 254
175 255
176 177
176 178
176 179
176 182
176 183
177 178
177 201
177 212
177 214
178 243
178 256
178 257
178 258
179 180
179 181
179 182
179 183
180 181
180 199
180 212
180 213
181 253
181 259
181 260
181 261
182 183
182 186
182 191
182 195
183 256
183 259
183 262
183 263
184 185
184 186
184 187
185 225
185 244
185 264
185 265
186 187
186 191
186 195
187 226
187 264
187 266
187 267
188 189
188 190
188 196
188 197
189 190
189 201
189 202
190 227
190 268
190 269
190 270
191 192
191 193
191 194
191 195
192 193
192 194
192 203
192 205
193 194
193 219
193 222
193 224
194 271
194 272
194 273
194 274
195 262
195 266
195 271
195 275
196 197
196 216
196 222
196 223
197 240
197 268
197 276
197 277
198 199
198 200
198 203
198 204
199 200
199 212
199 213
200 247
200 278
200 279
200 280
201 202
201 212
201 214
202 250
202 269
202 281
202 282
203 204
203 205
204 234
204 278
204 283
204 284
205 230
205 272
205 283
205 285
206 207
206 208
206 209
206 211
207 208
207 215
207 218
207 221
208 248
208 286
208 287
208 288
209 210
209 211
210 238
210 251
210 289
210 290
211 254
211 286
211 289
211 291
212 213
212 214
213 260
213 279
213 292
213 293
214 257
214 281
214 292
214 294
215 216
215 217
215 218
215 221
216 217
216 222
216 223
217 231
217 295
217 296
217 297
218 219
218 220
218 221
219 220
219 222
219 224
220 235
220 298
220 299
220 300
221 287
221 295
221 298
221 301
222 223
222 224
223 276
223 296
223 302
223 303
224 273
224 299
224 302
224 304
225 226
225 227
225 228
225 244
225 264
225 265
226 227
226 228
226 264
226 266
226 267
227 228
227 268
227 269
227 270
228 305
228 306
228 307
228 308
229 230
229 231
229 232
229 237
229 240
229 241
230 231
230 232
230 272
230 283
230 285
231 232
231 295
231 296
231 297
232 309
232 310
232 311
232 312
233 234
233 235
233 236
233 237
233 238
233 239
234 235
234 236
234 278
234 283
234 284
235 236
235 298
235 299
235 300
236 313
236 314
236 315
236 316
237 238
237 239
237 240
237 241
238 239
238 251
238 289
238 290
239 313
239 317
239 318
239 319
240 241
240 268
240 276
240 277
241 309
241 317
241 320
241 321
242 243
242 244
242 245
242 253
242 254
242 255
243 244
243 245
243 256
243 257
243 258
244 245
244 264
244 265
245 322
245 323
245 324
245 325
246 247
246 248
246 249
246 250
246 251
246 252
247 248
247 249
247 278
247 279
247 280
248 249
248 286
248 287
248 288
249 326
249 327
249 328
249 329
250 251
250 252
250 269
250 281
250 282
251 252
251 289
251 290
252 326
252 330
252 331
252 332
253 254
253 255
253 259
253 260
253 261
254 255
254 286
254 289
254 291
255 322
255 333
255 334
255 335
256 257
256 258
256 259
256 262
256 263
257 258
257 281
257 292
257 294
258 323
258 336
258 337
258 338
259 260
259 261
259 262
259 263
260 261
260 279
260 292
260 293
261 333
261 339
261 340
261 341
262 263
262 266
262 271
262 275
263 336
263 339
263 342
263 343
264 265
264 266
264 267
265 305
265 324
265 344
265 345
266 267
266 271
266 275
267 306
267 344
267 346
267 347
268 269
268 270
268 276
268 277
269 270
269 281
269 282
270 307
270 348
270 349
270 350
271 272
271 273
271 274
271 275
272 273
272 274
272 283
272 285
273 274
273 299
273 302
273 304
274 351
274 352
274 353
274 354
275 342
275 346
275 351
275 355
276 277
276 296
276 302
276 303
277 320
277 348
277 356
277 357
278 279
278 280
278 283
278 284
279 280
279 292
279 293
280 327
280 358
280 359
280 360
281 282
281 292
281 294
282 330
282 349
282 361
282 362
283 284
283 285
284 314
284 358
284 363
284 364
285 310
285 352
285 363
285 365
286 287
286 288
286 289
286 291
287 288
287 295
287 298
287 301
288 328
288 366
288 367
288 368
289 290
289 291
290 318
290 331
290 369
290 370
291 334
291 366
291 369
291 371
292 293
292 294
293 340
293 359
293 372
293 373
294 337
294 361
294 372
294 374
295 296
295 297
295 298
295 301
296 297
296 302
296 303
297 311
297 375
297 376
297 377
298 299
298 300
298 301
299 300
299 302
299 304
300 315
300 378
300 379
300 380
301 367
301 375
301 378
301 381
302 303
302 304
303 356
303 376
303 382
303 383
304 353
304 379
304 382
304 384
305 306
305 307
305 308
305 324
305 344
305 345
306 307
306 308
306 344
306 346
306 347
307 308
307 348
307 349
307 350
308 404
309 310
309 311
309 312
309 317
309 320
309 321
310 311
310 312
310 352
310 363
310 365
311 312
311 375
311 376
311 377
312 397
313 314
313 315
313 316
313 317
313 318
313 319
314 315
314 316
314 358
314 363
314 364
315 316
315 378
315 379
315 380
316 405
317 318
317 319
317 320
317 321
318 319
318 331
318 369
318 370
319 385
320 321
320 348
320 356
320 357
321 410
322 323
322 324
322 325
322 333
322 334
322 335
323 324
323 325
323 336
323 337
323 338
324 325
324 344
324 345
325 386
326 327
326 328
326 329
326 330
326 331
326 332
327 328
327 329
327 358
327 359
327 360
328 329
328 366
328 367
328 368
329 390
330 331
330 332
330 349
330 361
330 362
331 332
331 369
331 370
332 403
333 334
333 335
333 339
333 340
333 341
334 335
334 366
334 369
334 371
335 415
336 337
336 338
336 339
336 342
336 343
337 338
337 361
337 372
337 374
338 389
339 340
339 341
339 342
339 343
340 341
340 359
340 372
340 373
341 392
342 343
342 346
342 351
342 355
343 406
344 345
344 346
344 347
345 402
346 347
346 351
346 355
347 414
348 349
348 350
348 356
348 357
349 350
349 361
349 362
350 416
351 352
351 353
351 354
351 355
352 353
352 354
352 363
352 365
353 354
353 379
353 382
353 384
354 396
355 407
356 357
356 376
356 382
356 383
357 399
358 359
358 360
358 363
358 364
359 360
359 372
359 373
360 408
361 362
361 372
361 374
362 387
363 364
363 365
364 398
365 412
366 367
366 368
366 369
366 371
367 368
367 375
367 378
367 381
368 391
369 370
369 371
370 400
371 411
372 373
372 374
373 393
374 394
375 376
375 377
375 378
375 381
376 377
376 382
376 383
377 388
378 379
378 380
378 381
379 380
379 382
379 384
380 409
381 413
382 383
382 384
383 395
384 401
